NAME          COPTPROB
OBJSENSE
  MIN
ROWS
 N  __OBJ___
 L  C71     
 L  C113    
 L  C120    
 L  C184    
COLUMNS
    MARKER    'MARKER'                 'INTORG'
    x551      __OBJ___  55
    x551      C120      -1
    x1027     __OBJ___  62
    x1027     C71       -1
    x1027     C120      -1
    x1582     __OBJ___  25
    x1582     C71       -1
    x1582     C184      -1
    x2774     __OBJ___  22
    x2774     C113      -1
    x2774     C184      -1
    x3282     __OBJ___  17
    x3282     C71       -1
    x5983     __OBJ___  76
    x5983     C113      -1
    x5983     C120      -1
    MARKER    'MARKER'                 'INTEND'
RHS
    RHS       __OBJ___  -2544
    RHS       C71       -1
    RHS       C113      -1
    RHS       C120      -1
    RHS       C184      -1
BOUNDS
 UP BOUND     x551      1
 UP BOUND     x1027     1
 UP BOUND     x1582     1
 UP BOUND     x2774     1
 UP BOUND     x3282     1
 UP BOUND     x5983     1
ENDATA
